100
128
4
11
46
19
8
19
8
28
20
5
9
18
11
8
31
13
14
10
60
21
7
8
6
2
3
15
9
56
2
30
37
54
16
4
15
12
2
22
3
5
16
2
9
36
12
11
16
9
18
64
20
9
10
3
11
12
18
16
4
18
20
16
2
60
30
52
19
15
55
32
59
27
60
29
40
42
41
36
38
64
64
43
41
51
38
59
62
44
39
6
64
4
59
48
38
64
64
42
63
62